32      4       
11      14      18      13      
0       0       0       0       0       2       2       3       
8       11      0       0       8       3       4       5       6       
3       0       2       17      0       3       5       6       7       
9       0       14      0       2       3       7       9       13      
6       0       10      0       12      7       9       11      12      13      15      19      23      
3       10      0       18      0       5       8       14      19      20      24      
1       5       14      0       0       11      10      11      12      14      15      18      19      21      22      23      24      
4       0       9       18      0       10      10      11      12      13      15      16      17      21      22      23      
7       0       14      0       8       8       10      14      16      17      18      20      21      24      
6       11      14      0       0       5       25      26      27      28      31      
5       0       13      16      0       5       25      26      27      28      31      
10      0       0       18      13      5       25      26      27      28      31      
9       0       0       9       13      5       25      26      27      28      31      
1       0       10      0       13      4       26      27      28      31      
10      0       0       10      12      4       25      26      27      28      
3       11      8       0       0       4       25      26      28      31      
4       0       0       16      7       4       25      26      27      28      
3       5       0       0       11      4       25      26      28      31      
6       11      0       0       9       4       26      27      30      31      
8       0       14      0       13      4       26      27      30      31      
8       11      14      0       0       3       25      26      27      
6       9       0       0       10      3       25      26      27      
2       0       14      18      0       2       26      28      
9       6       0       12      0       2       25      27      
4       4       0       11      0       2       29      30      
5       0       5       17      0       1       29      
4       2       0       15      0       1       29      
1       7       0       6       0       1       30      
10      11      0       0       5       1       32      
1       0       3       0       10      1       32      
10      10      0       2       0       1       32      
0       0       0       0       0       0       
